instances/shortest_path/discrete_knapsack_uncertainty/nohadani_4_14.lp
\ Model nohadani_4_14
\ LP format - for model browsing. Use MPS format to capture full model detail.
\ Signature: 0x26b3cf7f3313a25f
Minimize
  32.4499614791759 y[0,1] + 17.08800749063506 y[0,2]
   + 71.69379331573968 y[0,3] + 32.4499614791759 y[1,0]
   + 47.38143096192854 y[1,2] + 60.30754513325841 y[1,3]
   + 17.08800749063506 y[2,0] + 47.38143096192854 y[2,1]
   + 71.69379331573968 y[3,0] + 60.30754513325841 y[3,1] + x[0,1] + x[0,2]
   + x[0,3] + x[1,0] + x[1,2] + x[1,3] + x[2,0] + x[2,1] + x[3,0] + x[3,1]
   + 3.244996147917591 r[0,1] + 1.708800749063506 r[0,2]
   + 7.169379331573968 r[0,3] + 3.244996147917591 r[1,0]
   + 4.738143096192854 r[1,2] + 6.030754513325841 r[1,3]
   + 1.708800749063506 r[2,0] + 4.738143096192854 r[2,1]
   + 7.169379331573968 r[3,0] + 6.030754513325841 r[3,1]
Subject To
 flow_cons_inner_nodes[0]: - y[0,1] - y[0,2] - y[0,3] + y[1,0] + y[2,0]
   + y[3,0] = 0
 flow_cons_inner_nodes[1]: y[0,1] - y[1,0] - y[1,2] - y[1,3] + y[2,1]
   + y[3,1] = 0
 flow_cons_source: - y[0,2] - y[1,2] + y[2,0] + y[2,1] = 1
 flow_cons_target: y[0,3] + y[1,3] - y[3,0] - y[3,1] = 1
 primal_lower: 7.091639526494457 x[0,1] + 3.938539418620396 x[0,2]
   + 1.296125189494607 x[0,3] + 6.850015807057313 x[1,0]
   + 7.310138031637702 x[1,2] + 5.261095372129873 x[1,3]
   + 2.482586942316775 x[2,0] + 4.522909089483169 x[2,1]
   + 4.153055592840385 x[3,0] + 0.3739387592904547 x[3,1] + 59 u[0,1]
   + 75 u[0,2] + 13 u[0,3] + 2 u[1,0] + 23 u[1,2] + 41 u[1,3] + 52 u[2,0]
   + 43 u[2,1] + 60 u[3,0] + 77 u[3,1] <= 77
 mccormick1[0,1]: - u[0,1] + r[0,1] <= 0
 mccormick1[0,2]: - u[0,2] + r[0,2] <= 0
 mccormick1[0,3]: - u[0,3] + r[0,3] <= 0
 mccormick1[1,0]: - u[1,0] + r[1,0] <= 0
 mccormick1[1,2]: - u[1,2] + r[1,2] <= 0
 mccormick1[1,3]: - u[1,3] + r[1,3] <= 0
 mccormick1[2,0]: - u[2,0] + r[2,0] <= 0
 mccormick1[2,1]: - u[2,1] + r[2,1] <= 0
 mccormick1[3,0]: - u[3,0] + r[3,0] <= 0
 mccormick1[3,1]: - u[3,1] + r[3,1] <= 0
 mccormick2[0,1]: - y[0,1] + r[0,1] <= 0
 mccormick2[0,2]: - y[0,2] + r[0,2] <= 0
 mccormick2[0,3]: - y[0,3] + r[0,3] <= 0
 mccormick2[1,0]: - y[1,0] + r[1,0] <= 0
 mccormick2[1,2]: - y[1,2] + r[1,2] <= 0
 mccormick2[1,3]: - y[1,3] + r[1,3] <= 0
 mccormick2[2,0]: - y[2,0] + r[2,0] <= 0
 mccormick2[2,1]: - y[2,1] + r[2,1] <= 0
 mccormick2[3,0]: - y[3,0] + r[3,0] <= 0
 mccormick2[3,1]: - y[3,1] + r[3,1] <= 0
 mccormick3[0,1]: - y[0,1] - u[0,1] + r[0,1] >= -1
 mccormick3[0,2]: - y[0,2] - u[0,2] + r[0,2] >= -1
 mccormick3[0,3]: - y[0,3] - u[0,3] + r[0,3] >= -1
 mccormick3[1,0]: - y[1,0] - u[1,0] + r[1,0] >= -1
 mccormick3[1,2]: - y[1,2] - u[1,2] + r[1,2] >= -1
 mccormick3[1,3]: - y[1,3] - u[1,3] + r[1,3] >= -1
 mccormick3[2,0]: - y[2,0] - u[2,0] + r[2,0] >= -1
 mccormick3[2,1]: - y[2,1] - u[2,1] + r[2,1] >= -1
 mccormick3[3,0]: - y[3,0] - u[3,0] + r[3,0] >= -1
 mccormick3[3,1]: - y[3,1] - u[3,1] + r[3,1] >= -1
Bounds
Binaries
 y[0,1] y[0,2] y[0,3] y[1,0] y[1,2] y[1,3] y[2,0] y[2,1] y[3,0] y[3,1]
 x[0,1] x[0,2] x[0,3] x[1,0] x[1,2] x[1,3] x[2,0] x[2,1] x[3,0] x[3,1]
 u[0,1] u[0,2] u[0,3] u[1,0] u[1,2] u[1,3] u[2,0] u[2,1] u[3,0] u[3,1]
 r[0,1] r[0,2] r[0,3] r[1,0] r[1,2] r[1,3] r[2,0] r[2,1] r[3,0] r[3,1]
End
