instances/shortest_path/discrete_knapsack_uncertainty/nohadani_4_14.kp
79216
77

[7.091639526494457 3.938539418620396 1.296125189494607 6.850015807057313 7.310138031637702 5.261095372129873 2.482586942316775 4.522909089483169 4.153055592840385 0.37393875929045467]

[59 75 13 2 23 41 52 43 60 77]
